Route 1: 186 102 60 107 128 95 68 21 114 32 40 193 159 27 6 13 24 136 50 90 166 161 11 79 126 91 105 10 66 142 84 157 123 93 198 130 64 141 26 124 57 5 7 187 146 127 156 22 173 78 183 148 163 53 164
Route 2: 99 171 181 8 38 194 122 96 67 55 150 58 45 138 112 184 44 178 48 167 197 200 145 196 75 69 151 174 17 46 176 98 14 73 16 89 133 70 169 113 25 180 85 83 121 189 20 30 170 153 154 86 168 80
Route 3: 34 3 165 12 135 110 4 41 61 92 42 143 71 185 119 31 88 118 9 129 29 155 15 147 195 132 101 125 191 47 56 116 77 115 23 18 111 144 63 54 100 182 109 87
Route 4: 74 62 131 19 43 152 49 81 179 192 35 28 177 108 188 97 137 117 162 158 172 51 59 140 37 139 103 160 120 175 36 33 149 94 134 190 2 104 106 82 76 199 39 1 65 72 52
Vehicles: 4
Distance: 3487.77
